NAME : RD99B.9464.tour
COMMENT : Cost = 0_9464
COMMENT : Found by LKH [Keld Helsgaun] Sun Sep 17 16:52:41 2017
TYPE : TOUR
DIMENSION : 99
TOUR_SECTION
1
59
70
18
61
86
85
96
66
13
3
32
77
9
26
73
20
55
37
28
58
94
93
6
78
53
98
47
56
52
45
44
99
11
60
36
63
90
89
67
82
51
64
30
48
79
80
5
22
41
34
7
42
24
25
43
40
54
39
95
29
35
23
88
2
83
87
31
16
97
65
75
57
92
76
19
72
46
50
38
69
71
17
91
27
10
33
4
12
14
84
81
74
21
49
62
15
68
8
-1
EOF
